# 26877
param k := 6;
param n := 60;
param s := 1;
set E :=  (0,32) (1,2) (1,40) (2,36) (3,51) (4,9) (4,43) (5,34) (6,11) (6,16) (6,23) (7,16) (8,15) (8,51) (9,20) (9,37) (9,46) (10,26) (10,58) (11,21) (11,25) (11,31) (11,34) (11,55) (12,43) (13,23) (14,38) (16,47) (17,22) (17,32) (17,35) (17,48) (17,49) (18,48) (19,53) (20,27) (20,53) (22,38) (23,51) (23,52) (23,58) (24,26) (26,36) (27,29) (27,59) (28,39) (28,41) (30,55) (32,36) (32,38) (33,48) (33,54) (36,55) (39,50) (39,58) (42,50) (44,53) (45,50) (45,53) (47,57) (49,56);